RAW/montane/fspd-mid/r101_seed-9.out
1009.95222	11.68	128.903
