RAW/montane/fspd-mid/r101_seed-9.sol
Route #1: 76 77 3 79 50 1 27
Route #2: 93 85 91 100 37 98
Route #3: 68 80 24 29 34 78 81 33
Route #4: 89 60 83 45 46 8 18
Route #5: 7 19 64 49 36 47 48 82
Route #6: 6 96 99 59 92 97 95 94
Route #7: 28 12 54 55 25 4 21 53
Route #8: 70 30 20 66 65 71 35 9 51
Route #9: 40 73 74 22 41 23 67 39 56 75 72 26
Route #10: 13 87 42 43 15 57 2 58
Route #11: 61 16 44 14 38 86 17 84 5
Route #12: 69 31 10 32 90 63 11 62 88 52
Cost 1009.952220